solution status: optimal solution found
objective value:                                    0
$_6__3_y                                           15 	(obj:0)
$_6__3_z                                           15 	(obj:0)
one.ctrl_s[0].hole_y                               19 	(obj:0)
one.ctrl_s[0].hole_z                               19 	(obj:0)
one.ctrl_s[0].flush_y                              18 	(obj:0)
one.ctrl_s[0].flush_z                              19 	(obj:0)
one.thingy.devices[0].thingy.v0_y                   19 	(obj:0)
one.thingy.devices[0].thingy.v0_z                   18 	(obj:0)
one.thingy.devices[0].thingy.v12_y                   18 	(obj:0)
one.thingy.devices[0].thingy.v12_z                   18 	(obj:0)
$_7__3_y                                           17 	(obj:0)
$_7__3_z                                           16 	(obj:0)
